LibMLKEM/why3-cvc5/mlkem.adb_1726_36_range_check_1.smt2
;; produced by cvc5.drv ;;
(set-logic ALL)
(set-info :smt-lib-version 2.6)
;;; generated by SMT-LIB2 driver
;;; SMT-LIB2 driver: bit-vectors, common part
;;; SMT-LIB2: integer arithmetic
;; "length"
(define-fun length ((x Int) (y Int)) Int
  (ite (<= x y) (+ (- y x) 1) 0))

;; "pow2"
(declare-fun pow2 (Int) Int)

(declare-const two_power_size_minus_one Int)

;; "two_power_size_minus_one_val"
(assert (= two_power_size_minus_one (pow2 (- 8 1))))

;; "min"
(define-fun min ((x Int) (y Int)) Int
  (ite (<= x y) x y))

;; "max"
(define-fun max ((x Int) (y Int)) Int
  (ite (<= x y) y x))

;; "Min_r"
(assert (forall ((x Int) (y Int)) (=> (<= y x) (= (min x y) y))))

;; "Max_l"
(assert (forall ((x Int) (y Int)) (=> (<= y x) (= (max x y) x))))

;; "Min_comm"
(assert (forall ((x Int) (y Int)) (= (min x y) (min y x))))

;; "Max_comm"
(assert (forall ((x Int) (y Int)) (= (max x y) (max y x))))

;; "Min_assoc"
(assert
  (forall ((x Int) (y Int) (z Int)) (= (min (min x y) z) (min x (min y z)))))

;; "Max_assoc"
(assert
  (forall ((x Int) (y Int) (z Int)) (= (max (max x y) z) (max x (max y z)))))

(declare-sort byte 0)

(declare-sort tinteger_32B 0)

;; "tinteger_32B'int"
(declare-fun tinteger_32Bqtint (tinteger_32B) Int)

;; "tinteger_32B'axiom"
(assert
  (forall ((i tinteger_32B))
    (and
      (<= (- 2147483648) (tinteger_32Bqtint i))
      (<= (tinteger_32Bqtint i) 2147483647))))

;; "in_range"
(define-fun in_range ((x Int)) Bool
  (and (<= (- 2147483648) x) (<= x 2147483647)))

;; "to_rep"
(define-fun to_rep ((x tinteger_32B)) Int
  (tinteger_32Bqtint x))

;; "of_rep"
(declare-fun of_rep (Int) tinteger_32B)

;; "inversion_axiom"
(assert
  (forall ((x tinteger_32B))
    (! (= (of_rep (to_rep x)) x) :pattern ((to_rep x)) )))

;; "range_axiom"
(assert
  (forall ((x tinteger_32B))
    (! (in_range (to_rep x)) :pattern ((to_rep x)) )))

;; "coerce_axiom"
(assert
  (forall ((x Int))
    (! (=> (in_range x) (= (to_rep (of_rep x)) x)) :pattern ((to_rep
                                                               (of_rep x))) )))

;; "in_range"
(define-fun in_range1 ((x Int)) Bool
  (and (<= 0 x) (<= x 2147483647)))

;; "to_rep"
(declare-fun to_rep1 (byte) (_ BitVec 8))

;; "of_rep"
(declare-fun of_rep1 ((_ BitVec 8)) byte)

;; "inversion_axiom"
(assert
  (forall ((x byte)) (! (= (of_rep1 (to_rep1 x)) x) :pattern ((to_rep1 x)) )))

;; "range_axiom"
(assert true)

;; "coerce_axiom"
(assert
  (forall ((x (_ BitVec 8)))
    (! (= (to_rep1 (of_rep1 x)) x) :pattern ((to_rep1 (of_rep1 x))) )))

(declare-sort map1 0)

;; "has_bounds"
(declare-fun has_bounds (map1
  Int
  Int) Bool)

;; "get"
(declare-fun get (map1
  Int) byte)

;; "slide"
(declare-fun slide (map1
  Int
  Int) map1)

;; "slide_eq"
(assert
  (forall ((a map1) (first Int))
    (! (= (slide a first first) a) :pattern ((slide a first first)) )))

;; "slide_def"
(assert
  (forall ((a map1) (old_first Int) (new_first Int))
    (! (and
         (forall ((i Int))
           (! (= (get (slide a old_first new_first) i) (get
                                                         a
                                                         (- i (- new_first old_first)))) :pattern (
           (get
             (slide a old_first new_first)
             i)) ))
         (forall ((new_last Int))
           (! (=>
                (has_bounds a old_first (- new_last (- new_first old_first)))
                (has_bounds (slide a old_first new_first) new_first new_last)) :pattern (
           (has_bounds
             (slide a old_first new_first)
             new_first
             new_last)) ))) :pattern ((slide a old_first new_first)) )))

;; "concat_singleton_right"
(declare-fun concat_singleton_right (map1
  Int
  Int
  byte
  Int) map1)

;; "concat_singleton_right_def"
(assert
  (forall ((a map1) (b byte) (a_first Int) (a_last Int) (new_last Int))
    (! (and
         (=>
           (and (<= a_first a_last) (< a_last new_last))
           (=>
             (has_bounds a a_first a_last)
             (has_bounds
               (concat_singleton_right a a_first a_last b new_last)
               a_first
               new_last)))
         (and
           (=>
             (< a_last (+ a_last 1))
             (= (get
                  (concat_singleton_right a a_first a_last b new_last)
                  (+ a_last 1)) b))
           (forall ((i Int))
             (! (=>
                  (and (<= a_first i) (<= i a_last))
                  (= (get
                       (concat_singleton_right a a_first a_last b new_last)
                       i) (get a i))) :pattern ((get
                                                  (concat_singleton_right
                                                    a
                                                    a_first
                                                    a_last
                                                    b
                                                    new_last)
                                                  i)) :pattern ((get a i)) )))) :pattern (
    (concat_singleton_right
      a
      a_first
      a_last
      b
      new_last)) )))

;; "singleton"
(declare-fun singleton1 (byte
  Int) map1)

;; "singleton_bounds"
(assert
  (forall ((v byte) (i Int))
    (! (and (has_bounds (singleton1 v i) i i) (= (get (singleton1 v i) i) v)) :pattern (
    (singleton1
      v
      i)) )))

(declare-datatypes ((t 0))
  (((tqtmk (rec__first tinteger_32B)(rec__last tinteger_32B)))))

;; "mk"
(declare-fun mk (Int
  Int) t)

;; "mk_def"
(assert
  (forall ((f Int) (l Int))
    (! (=>
         (in_range f)
         (=>
           (in_range l)
           (and
             (= (to_rep (rec__first (mk f l))) f)
             (= (to_rep (rec__last (mk f l))) l)))) :pattern ((mk f l)) )))

(declare-datatypes ((us_t 0))
  (((us_tqtmk (elts map1)(rt t)))))

;; "to_array"
(define-fun to_array ((a us_t)) map1
  (elts a))

;; "of_array"
(define-fun of_array ((a map1) (f Int) (l Int)) us_t
  (us_tqtmk a (mk f l)))

;; "first"
(define-fun first ((a us_t)) Int
  (to_rep (rec__first (rt a))))

;; "last"
(define-fun last ((a us_t)) Int
  (to_rep (rec__last (rt a))))

;; "length"
(define-fun length1 ((a us_t)) Int
  (ite (<= (first a) (last a)) (+ (- (last a) (first a)) 1) 0))

(declare-const two_power_size_minus_one1 Int)

;; "two_power_size_minus_one_val"
(assert (= two_power_size_minus_one1 (pow2 (- 16 1))))

(declare-sort t1 0)

;; "in_range"
(define-fun in_range2 ((x (_ BitVec 16))) Bool
  (and (bvule #x0000 x) (bvule x #x0D00)))

;; "to_rep"
(declare-fun to_rep2 (t1) (_ BitVec 16))

;; "of_rep"
(declare-fun of_rep2 ((_ BitVec 16)) t1)

;; "inversion_axiom"
(assert
  (forall ((x t1)) (! (= (of_rep2 (to_rep2 x)) x) :pattern ((to_rep2 x)) )))

;; "range_axiom"
(assert
  (forall ((x t1)) (! (in_range2 (to_rep2 x)) :pattern ((to_rep2 x)) )))

;; "coerce_axiom"
(assert
  (forall ((x (_ BitVec 16)))
    (! (let ((y (bvurem x #x0D01)))
         (=> (in_range2 y) (= (to_rep2 (of_rep2 x)) y))) :pattern ((to_rep2
                                                                    (of_rep2
                                                                    x))) )))

(declare-sort map2 0)

;; "has_bounds"
(declare-fun has_bounds1 (map2
  Int
  Int) Bool)

;; "get"
(declare-fun get1 (map2
  Int) t1)

(declare-datatypes ((t__init_wrapper 0))
  (((t__init_wrapperqtmk (rec__value t1)(us_attr__init Bool)))))

(declare-sort map3 0)

;; "has_bounds"
(declare-fun has_bounds2 (map3
  Int
  Int) Bool)

;; "get"
(declare-fun get2 (map3
  Int) t__init_wrapper)

;; "xof_then_samplentt"
(declare-fun xof_then_samplentt (map1) map2)

;; "xof_then_samplentt__function_guard"
(declare-fun xof_then_samplentt__function_guard (map2
  map1) Bool)

(declare-const rho map1)

(declare-sort map4 0)

;; "has_bounds"
(declare-fun has_bounds3 (map4
  Int
  Int) Bool)

;; "get"
(declare-fun get3 (map4
  Int) map3)

;; "set"
(declare-fun set (map4
  Int
  map3) map4)

;; "set_eq"
(assert
  (forall ((a map4) (i Int) (v map3))
    (! (= (get3 (set a i v) i) v) :pattern ((set a i v)) )))

;; "set_neq"
(assert
  (forall ((a map4) (i Int) (v map3))
    (! (forall ((j Int))
         (! (=> (not (= i j)) (= (get3 (set a i v) j) (get3 a j))) :pattern (
         (get3
           a
           j)) :pattern ((get3 (set a i v) j)) )) :pattern ((set a i v)) )))

;; "set_has_bounds"
(assert
  (forall ((a map4) (i Int) (f Int) (l Int) (v map3))
    (! (=>
         (and (<= f i) (<= i l))
         (=> (has_bounds3 a f l) (has_bounds3 (set a i v) f l))) :pattern (
    (has_bounds3
      (set a i v)
      f
      l)) )))

(declare-sort map5 0)

;; "has_bounds"
(declare-fun has_bounds4 (map5
  Int
  Int) Bool)

;; "get"
(declare-fun get4 (map5
  Int) map4)

;; "set"
(declare-fun set1 (map5
  Int
  map4) map5)

;; "set_eq"
(assert
  (forall ((a map5) (i Int) (v map4))
    (! (= (get4 (set1 a i v) i) v) :pattern ((set1 a i v)) )))

;; "set_neq"
(assert
  (forall ((a map5) (i Int) (v map4))
    (! (forall ((j Int))
         (! (=> (not (= i j)) (= (get4 (set1 a i v) j) (get4 a j))) :pattern (
         (get4
           a
           j)) :pattern ((get4 (set1 a i v) j)) )) :pattern ((set1 a i v)) )))

;; "set_has_bounds"
(assert
  (forall ((a map5) (i Int) (f Int) (l Int) (v map4))
    (! (=>
         (and (<= f i) (<= i l))
         (=> (has_bounds4 a f l) (has_bounds4 (set1 a i v) f l))) :pattern (
    (has_bounds4
      (set1 a i v)
      f
      l)) )))

;; "convert"
(declare-fun convert (map2) map3)

;; "convert__def"
(assert
  (forall ((a map2))
    (let ((b (convert a)))
      (forall ((temp___199 Int))
        (and
          (= (us_attr__init
               (t__init_wrapperqtmk
                 (of_rep2 (to_rep2 (get1 a temp___199)))
                 true)) (us_attr__init (get2 b temp___199)))
          (= (to_rep2
               (rec__value
                 (t__init_wrapperqtmk
                   (of_rep2 (to_rep2 (get1 a temp___199)))
                   true))) (to_rep2 (rec__value (get2 b temp___199)))))))))

;; "dynamic_invariant_r"
(define-fun dynamic_invariant_r ((temp___expr_1158 map5) (temp___is_init_1154 Bool) (temp___skip_constant_1155 Bool) (temp___do_toplevel_1156 Bool) (temp___do_typ_inv_1157 Bool)) Bool
  (and
    (has_bounds4 temp___expr_1158 0 2)
    (forall ((temp___1159 Int))
      (=>
        (and (<= 0 temp___1159) (<= temp___1159 2))
        (and
          (has_bounds3 (get4 temp___expr_1158 temp___1159) 0 2)
          (forall ((temp___1160 Int))
            (=>
              (and (<= 0 temp___1160) (<= temp___1160 2))
              (has_bounds2
                (get3 (get4 temp___expr_1158 temp___1159) temp___1160)
                0
                255))))))))

(declare-sort tk_rangeB 0)

;; "tk_rangeB'int"
(declare-fun tk_rangeBqtint (tk_rangeB) Int)

;; "tk_rangeB'axiom"
(assert
  (forall ((i tk_rangeB))
    (and (<= (- 128) (tk_rangeBqtint i)) (<= (tk_rangeBqtint i) 127))))

;; "in_range"
(define-fun in_range3 ((x Int)) Bool
  (and (<= (- 128) x) (<= x 127)))

;; "to_rep"
(define-fun to_rep3 ((x tk_rangeB)) Int
  (tk_rangeBqtint x))

;; "of_rep"
(declare-fun of_rep3 (Int) tk_rangeB)

;; "inversion_axiom"
(assert
  (forall ((x tk_rangeB))
    (! (= (of_rep3 (to_rep3 x)) x) :pattern ((to_rep3 x)) )))

;; "range_axiom"
(assert
  (forall ((x tk_rangeB))
    (! (in_range3 (to_rep3 x)) :pattern ((to_rep3 x)) )))

;; "coerce_axiom"
(assert
  (forall ((x Int))
    (! (=> (in_range3 x) (= (to_rep3 (of_rep3 x)) x)) :pattern ((to_rep3
                                                                  (of_rep3 x))) )))

;; Goal "def'vc"
;; File "mlkem.adb", line 1707, characters 0-0
(assert
  (not
  (forall ((a_hat map5))
    (=>
      (has_bounds rho 0 31)
      (=>
        (dynamic_invariant_r a_hat false false true true)
        (forall ((i Int))
          (=>
            (= i 0)
            (=>
              (= (and (ite (<= 0 i) true false) (ite (<= i 2) true false)) true)
              (forall ((j Int))
                (=>
                  (= j 0)
                  (=>
                    (= (and (ite (<= 0 j) true false) (ite (<= j 2)
                                                        true
                                                        false)) true)
                    (forall ((temp___5277 us_t))
                      (=>
                        (let ((temp___5276 ((_ int2bv 8) i)))
                          (let ((o (- (+ 0 (+ (length 0 31) 1)) 1)))
                            (and
                              (in_range1 o)
                              (exists ((o1 byte))
                                (and
                                  (= (to_rep1 o1) ((_ int2bv 8) j))
                                  (let ((temp___5275 (of_array
                                                       (concat_singleton_right
                                                         rho
                                                         0
                                                         31
                                                         o1
                                                         (+ 2147483647 1))
                                                       0
                                                       o)))
                                    (ite (= (length1 temp___5275) 0)
                                      (exists ((o2 byte))
                                        (and
                                          (= (to_rep1 o2) temp___5276)
                                          (= temp___5277 (of_array
                                                           (singleton1 o2 0)
                                                           0
                                                           0))))
                                      (let ((o2 (- (+ (first temp___5275) (+ 
                                        (length
                                          (first temp___5275)
                                          (last temp___5275)) 1)) 1)))
                                        (and
                                          (in_range1 o2)
                                          (exists ((o3 byte))
                                            (and
                                              (= (to_rep1 o3) temp___5276)
                                              (= temp___5277 (of_array
                                                               (concat_singleton_right
                                                                 (to_array
                                                                   temp___5275)
                                                                 (first
                                                                   temp___5275)
                                                                 (last
                                                                   temp___5275)
                                                                 o3
                                                                 (+ 2147483647 1))
                                                               (first
                                                                 temp___5275)
                                                               o2)))))))))))))
                        (let ((temp___5278 (slide
                                             (to_array temp___5277)
                                             (first temp___5277)
                                             0)))
                          (=>
                            (ite (<= (first temp___5277) (last temp___5277))
                              (and
                                (<= 0 33)
                                (= (- (last temp___5277) (first temp___5277)) (- 33 0)))
                              (< 33 0))
                            (let ((temp___5279 (xof_then_samplentt
                                                 temp___5278)))
                              (=>
                                (and
                                  (xof_then_samplentt__function_guard
                                    temp___5279
                                    temp___5278)
                                  (has_bounds1 temp___5279 0 255))
                                (forall ((a_hat1 map5))
                                  (=>
                                    (= a_hat1 (set1
                                                a_hat
                                                i
                                                (set
                                                  (get4 a_hat i)
                                                  j
                                                  (convert temp___5279))))
                                    (=>
                                      (<= 0 j)
                                      (and
                                        (and (<= 0 0) (<= 0 2))
                                        (and (<= 0 j) (<= j 2)))))))))))))))))))))))

(check-sat)
